GLPSOL--GLPK LP/MIP Solver 5.0
Parameter(s) specified in the command line:
 --lp ../modeles/10_124.lp --log 10_124.log
Reading problem data from '../modeles/10_124.lp'...
1281 rows, 2500 columns, 8710 non-zeros
1240 integer variables, all of which are binary
3797 lines were read
GLPK Integer Optimizer 5.0
1281 rows, 2500 columns, 8710 non-zeros
1240 integer variables, all of which are binary
Preprocessing...
1220 constraint coefficient(s) were reduced
1281 rows, 2490 columns, 8700 non-zeros
1240 integer variables, all of which are binary
Scaling...
 A: min|aij| =  1.041e-03  max|aij| =  4.000e+00  ratio =  3.844e+03
GM: min|aij| =  1.270e-01  max|aij| =  7.874e+00  ratio =  6.200e+01
EQ: min|aij| =  1.613e-02  max|aij| =  1.000e+00  ratio =  6.200e+01
2N: min|aij| =  1.562e-02  max|aij| =  1.740e+00  ratio =  1.114e+02
Constructing initial basis...
Size of triangular part is 1281
Solving LP relaxation...
GLPK Simplex Optimizer 5.0
1281 rows, 2490 columns, 8700 non-zeros
      0: obj =   2.000000000e+01 inf =   4.950e+01 (21)
    169: obj =   1.522842640e-02 inf =   0.000e+00 (0)
*   522: obj =  -3.159592530e+00 inf =   1.283e-15 (0)
OPTIMAL LP SOLUTION FOUND
Integer optimization begins...
Long-step dual simplex will be used
+   522: mip =     not found yet >=              -inf        (1; 0)
+   535: >>>>>  -3.159592530e+00 >=  -3.159592530e+00 < 0.1% (10; 0)
+   535: mip =  -3.159592530e+00 >=     tree is empty   0.0% (0; 19)
INTEGER OPTIMAL SOLUTION FOUND
Time used:   0.1 secs
Memory used: 3.6 Mb (3802322 bytes)
